TCS_Benchmarks/redos_fix/snort3_output_distinct_2334_2333_0_0.smt2
(set-logic QF_S)
(declare-const x String)
(assert (str.in.re x (re.inter (re.*  (re.union (re.union (re.range "\u{00}" "\u{09}") (re.range "\u{0b}" "\u{0c}") (re.range "\u{0e}" "\u{84}") (re.range "\u{86}" "\u{ff}")) (re.union  (str.to_re "\u{0A}")  (str.to_re "\u{0D}"))) )  (re.++ (re.*  (re.union (re.union (re.range "\u{00}" "\u{09}") (re.range "\u{0b}" "\u{0c}") (re.range "\u{0e}" "\u{84}") (re.range "\u{86}" "\u{ff}")) (re.union  (str.to_re "\u{0A}")  (str.to_re "\u{0D}"))) ) (re.++  (re.++  (re.union  (re.++  (str.to.re "\u{6c}") (re.++  (str.to.re "\u{6f}") (re.++  (str.to.re "\u{67}") (re.++  (str.to.re "\u{69}") (re.++  (str.to.re "\u{6e}") (re.++  (str.to.re "\u{54}") (re.++  (str.to.re "\u{69}") (re.++  (str.to.re "\u{6d}") (re.++  (str.to.re "\u{65}") (re.++  (str.to.re "\u{53}") (re.++  (str.to.re "\u{74}") (re.++  (str.to.re "\u{61}") (re.++  (str.to.re "\u{6d}")  (str.to.re "\u{70}")))))))))))))) (re.union  (re.++  (str.to.re "\u{64}") (re.++  (str.to.re "\u{62}")  (str.to.re "\u{6f}"))) (re.union  (re.++  (str.to.re "\u{64}") (re.++  (str.to.re "\u{61}") (re.++  (str.to.re "\u{74}") (re.++  (str.to.re "\u{65}") (re.++  (str.to.re "\u{44}") (re.++  (str.to.re "\u{69}") (re.++  (str.to.re "\u{66}") (re.++  (str.to.re "\u{66}") (re.++  (str.to.re "\u{50}") (re.++  (str.to.re "\u{61}") (re.++  (str.to.re "\u{72}") (re.++  (str.to.re "\u{61}")  (str.to.re "\u{6d}")))))))))))))  (re.++  (str.to.re "\u{77}") (re.++  (str.to.re "\u{68}") (re.++  (str.to.re "\u{65}") (re.++  (str.to.re "\u{72}") (re.++  (str.to.re "\u{65}") (re.++  (str.to.re "\u{43}") (re.++  (str.to.re "\u{6c}") (re.++  (str.to.re "\u{61}") (re.++  (str.to.re "\u{75}") (re.++  (str.to.re "\u{73}")  (str.to.re "\u{65}"))))))))))))))  (str.to.re "\u{3d}")) (re.* (re.comp  (str.to.re "\u{26}")) ))) (re.* (re.comp  (str.to.re "\u{26}")) ) )))
(check-sat)
(get-model)