TCS_Benchmarks/redos_fix/snort3_output_distinct_2334_2333_0_0.txt
(.|\n|\r)*
((.|\n|\r)*)((loginTimeStamp|dbo|dateDiffParam|whereClause)=)([^&]*)
[^&]*